EE324/Module_1/formal/Bounce_Counter_FSM/FSM/model/design_smt2.smt2
; SMT-LIBv2 description generated by Yosys 0.8+694 (git sha1 dc9c47b5, clang 6.0.0-1ubuntu2 -fPIC -Os)
; yosys-smt2-module Bounce_Counter_FSM
(declare-sort |Bounce_Counter_FSM_s| 0)
(declare-fun |Bounce_Counter_FSM_is| (|Bounce_Counter_FSM_s|) Bool)
; yosys-smt2-wire w_Signal 1
(declare-fun |Bounce_Counter_FSM#0| (|Bounce_Counter_FSM_s|) Bool) ; \i_Signal
(define-fun |Bounce_Counter_FSM_n w_Signal| ((state |Bounce_Counter_FSM_s|)) Bool (|Bounce_Counter_FSM#0| state))
; yosys-smt2-wire w_RST 1
(declare-fun |Bounce_Counter_FSM#1| (|Bounce_Counter_FSM_s|) Bool) ; \i_RST
(define-fun |Bounce_Counter_FSM_n w_RST| ((state |Bounce_Counter_FSM_s|)) Bool (|Bounce_Counter_FSM#1| state))
; yosys-smt2-wire w_100MHZCLK 1
(declare-fun |Bounce_Counter_FSM#2| (|Bounce_Counter_FSM_s|) Bool) ; \i_100MHZCLK
(define-fun |Bounce_Counter_FSM_n w_100MHZCLK| ((state |Bounce_Counter_FSM_s|)) Bool (|Bounce_Counter_FSM#2| state))
; yosys-smt2-register r_valid 1
; yosys-smt2-wire r_valid 1
(declare-fun |Bounce_Counter_FSM#3| (|Bounce_Counter_FSM_s|) (_ BitVec 1)) ; \r_valid
(define-fun |Bounce_Counter_FSM_n r_valid| ((state |Bounce_Counter_FSM_s|)) Bool (= ((_ extract 0 0) (|Bounce_Counter_FSM#3| state)) #b1))
; yosys-smt2-wire r_NEXT_STATE 2
(define-fun |Bounce_Counter_FSM#4| ((state |Bounce_Counter_FSM_s|)) (_ BitVec 2) (ite (|Bounce_Counter_FSM#0| state) #b01 #b10)) ; $3\r_NEXT_STATE[1:0]
(define-fun |Bounce_Counter_FSM#5| ((state |Bounce_Counter_FSM_s|)) (_ BitVec 1) (ite (|Bounce_Counter_FSM#0| state) #b1 #b0)) ; $2\r_NEXT_STATE[1:0]
(declare-fun |Bounce_Counter_FSM#6| (|Bounce_Counter_FSM_s|) (_ BitVec 2)) ; $auto$async2sync.cc:104:execute$332
(define-fun |Bounce_Counter_FSM#7| ((state |Bounce_Counter_FSM_s|)) (_ BitVec 2) (ite (|Bounce_Counter_FSM#1| state) #b00 (|Bounce_Counter_FSM#6| state))) ; \r_CURRENT_STATE
(define-fun |Bounce_Counter_FSM#8| ((state |Bounce_Counter_FSM_s|)) Bool (= (|Bounce_Counter_FSM#7| state) #b10)) ; $eq$Bounce_Counter_FSM.v:130$77_Y
(define-fun |Bounce_Counter_FSM#9| ((state |Bounce_Counter_FSM_s|)) Bool (= (|Bounce_Counter_FSM#7| state) #b01)) ; $eq$Bounce_Counter_FSM.v:102$27_Y
(define-fun |Bounce_Counter_FSM#10| ((state |Bounce_Counter_FSM_s|)) Bool (not (or  (= ((_ extract 0 0) (|Bounce_Counter_FSM#7| state)) #b1) (= ((_ extract 1 1) (|Bounce_Counter_FSM#7| state)) #b1)))) ; $eq$Bounce_Counter_FSM.v:122$64_Y
(define-fun |Bounce_Counter_FSM#11| ((state |Bounce_Counter_FSM_s|)) (_ BitVec 2) (ite (|Bounce_Counter_FSM#10| state) (concat #b0 (|Bounce_Counter_FSM#5| state)) (ite (|Bounce_Counter_FSM#9| state) (|Bounce_Counter_FSM#4| state) (ite (|Bounce_Counter_FSM#8| state) #b10 #b00)))) ; \r_NEXT_STATE
(define-fun |Bounce_Counter_FSM_n r_NEXT_STATE| ((state |Bounce_Counter_FSM_s|)) (_ BitVec 2) (|Bounce_Counter_FSM#11| state))
; yosys-smt2-wire r_CURRENT_STATE 2
(define-fun |Bounce_Counter_FSM_n r_CURRENT_STATE| ((state |Bounce_Counter_FSM_s|)) (_ BitVec 2) (|Bounce_Counter_FSM#7| state))
; yosys-smt2-wire r_COUNTER 14
(declare-fun |Bounce_Counter_FSM#12| (|Bounce_Counter_FSM_s|) (_ BitVec 14)) ; $auto$async2sync.cc:104:execute$328
(define-fun |Bounce_Counter_FSM#13| ((state |Bounce_Counter_FSM_s|)) (_ BitVec 14) (ite (|Bounce_Counter_FSM#1| state) #b00000000000000 (|Bounce_Counter_FSM#12| state))) ; \r_COUNTER
(define-fun |Bounce_Counter_FSM_n r_COUNTER| ((state |Bounce_Counter_FSM_s|)) (_ BitVec 14) (|Bounce_Counter_FSM#13| state))
; yosys-smt2-wire r_CEN 1
(declare-fun |Bounce_Counter_FSM#14| (|Bounce_Counter_FSM_s|) (_ BitVec 1)) ; $auto$async2sync.cc:104:execute$324
(define-fun |Bounce_Counter_FSM#15| ((state |Bounce_Counter_FSM_s|)) (_ BitVec 1) (ite (|Bounce_Counter_FSM#1| state) #b0 (|Bounce_Counter_FSM#14| state))) ; \r_CEN
(define-fun |Bounce_Counter_FSM_n r_CEN| ((state |Bounce_Counter_FSM_s|)) Bool (= ((_ extract 0 0) (|Bounce_Counter_FSM#15| state)) #b1))
; yosys-smt2-output o_DATA 14
; yosys-smt2-wire o_DATA 14
(define-fun |Bounce_Counter_FSM_n o_DATA| ((state |Bounce_Counter_FSM_s|)) (_ BitVec 14) (|Bounce_Counter_FSM#13| state))
; yosys-smt2-output o_CEN 1
; yosys-smt2-wire o_CEN 1
(define-fun |Bounce_Counter_FSM_n o_CEN| ((state |Bounce_Counter_FSM_s|)) Bool (= ((_ extract 0 0) (|Bounce_Counter_FSM#15| state)) #b1))
; yosys-smt2-input i_Signal 1
; yosys-smt2-wire i_Signal 1
(define-fun |Bounce_Counter_FSM_n i_Signal| ((state |Bounce_Counter_FSM_s|)) Bool (|Bounce_Counter_FSM#0| state))
; yosys-smt2-input i_RST 1
; yosys-smt2-wire i_RST 1
(define-fun |Bounce_Counter_FSM_n i_RST| ((state |Bounce_Counter_FSM_s|)) Bool (|Bounce_Counter_FSM#1| state))
; yosys-smt2-input i_100MHZCLK 1
; yosys-smt2-wire i_100MHZCLK 1
(define-fun |Bounce_Counter_FSM_n i_100MHZCLK| ((state |Bounce_Counter_FSM_s|)) Bool (|Bounce_Counter_FSM#2| state))
; yosys-smt2-register $past$Bounce_Counter_FSM.v:139$9$0 1
(declare-fun |Bounce_Counter_FSM#16| (|Bounce_Counter_FSM_s|) (_ BitVec 1)) ; $past$Bounce_Counter_FSM.v:139$9$0
(define-fun |Bounce_Counter_FSM_n $past$Bounce_Counter_FSM.v:139$9$0| ((state |Bounce_Counter_FSM_s|)) Bool (= ((_ extract 0 0) (|Bounce_Counter_FSM#16| state)) #b1))
; yosys-smt2-register $past$Bounce_Counter_FSM.v:127$4$0 14
(declare-fun |Bounce_Counter_FSM#17| (|Bounce_Counter_FSM_s|) (_ BitVec 14)) ; $past$Bounce_Counter_FSM.v:127$4$0
(define-fun |Bounce_Counter_FSM_n $past$Bounce_Counter_FSM.v:127$4$0| ((state |Bounce_Counter_FSM_s|)) (_ BitVec 14) (|Bounce_Counter_FSM#17| state))
; yosys-smt2-register $past$Bounce_Counter_FSM.v:122$2$0 2
(declare-fun |Bounce_Counter_FSM#18| (|Bounce_Counter_FSM_s|) (_ BitVec 2)) ; $past$Bounce_Counter_FSM.v:122$2$0
(define-fun |Bounce_Counter_FSM_n $past$Bounce_Counter_FSM.v:122$2$0| ((state |Bounce_Counter_FSM_s|)) (_ BitVec 2) (|Bounce_Counter_FSM#18| state))
; yosys-smt2-register $formal$Bounce_Counter_FSM.v:132$15_CHECK 1
(declare-fun |Bounce_Counter_FSM#19| (|Bounce_Counter_FSM_s|) (_ BitVec 1)) ; $formal$Bounce_Counter_FSM.v:132$15_CHECK
(define-fun |Bounce_Counter_FSM_n $formal$Bounce_Counter_FSM.v:132$15_CHECK| ((state |Bounce_Counter_FSM_s|)) Bool (= ((_ extract 0 0) (|Bounce_Counter_FSM#19| state)) #b1))
; yosys-smt2-register $formal$Bounce_Counter_FSM.v:131$14_EN 1
(declare-fun |Bounce_Counter_FSM#20| (|Bounce_Counter_FSM_s|) (_ BitVec 1)) ; $formal$Bounce_Counter_FSM.v:131$14_EN
(define-fun |Bounce_Counter_FSM_n $formal$Bounce_Counter_FSM.v:131$14_EN| ((state |Bounce_Counter_FSM_s|)) Bool (= ((_ extract 0 0) (|Bounce_Counter_FSM#20| state)) #b1))
; yosys-smt2-register $formal$Bounce_Counter_FSM.v:131$14_CHECK 1
(declare-fun |Bounce_Counter_FSM#21| (|Bounce_Counter_FSM_s|) (_ BitVec 1)) ; $formal$Bounce_Counter_FSM.v:131$14_CHECK
(define-fun |Bounce_Counter_FSM_n $formal$Bounce_Counter_FSM.v:131$14_CHECK| ((state |Bounce_Counter_FSM_s|)) Bool (= ((_ extract 0 0) (|Bounce_Counter_FSM#21| state)) #b1))
; yosys-smt2-register $formal$Bounce_Counter_FSM.v:128$13_CHECK 1
(declare-fun |Bounce_Counter_FSM#22| (|Bounce_Counter_FSM_s|) (_ BitVec 1)) ; $formal$Bounce_Counter_FSM.v:128$13_CHECK
(define-fun |Bounce_Counter_FSM_n $formal$Bounce_Counter_FSM.v:128$13_CHECK| ((state |Bounce_Counter_FSM_s|)) Bool (= ((_ extract 0 0) (|Bounce_Counter_FSM#22| state)) #b1))
; yosys-smt2-register $formal$Bounce_Counter_FSM.v:127$12_EN 1
(declare-fun |Bounce_Counter_FSM#23| (|Bounce_Counter_FSM_s|) (_ BitVec 1)) ; $formal$Bounce_Counter_FSM.v:127$12_EN
(define-fun |Bounce_Counter_FSM_n $formal$Bounce_Counter_FSM.v:127$12_EN| ((state |Bounce_Counter_FSM_s|)) Bool (= ((_ extract 0 0) (|Bounce_Counter_FSM#23| state)) #b1))
; yosys-smt2-register $formal$Bounce_Counter_FSM.v:127$12_CHECK 1
(declare-fun |Bounce_Counter_FSM#24| (|Bounce_Counter_FSM_s|) (_ BitVec 1)) ; $formal$Bounce_Counter_FSM.v:127$12_CHECK
(define-fun |Bounce_Counter_FSM_n $formal$Bounce_Counter_FSM.v:127$12_CHECK| ((state |Bounce_Counter_FSM_s|)) Bool (= ((_ extract 0 0) (|Bounce_Counter_FSM#24| state)) #b1))
; yosys-smt2-register $formal$Bounce_Counter_FSM.v:124$11_CHECK 1
(declare-fun |Bounce_Counter_FSM#25| (|Bounce_Counter_FSM_s|) (_ BitVec 1)) ; $formal$Bounce_Counter_FSM.v:124$11_CHECK
(define-fun |Bounce_Counter_FSM_n $formal$Bounce_Counter_FSM.v:124$11_CHECK| ((state |Bounce_Counter_FSM_s|)) Bool (= ((_ extract 0 0) (|Bounce_Counter_FSM#25| state)) #b1))
; yosys-smt2-register $formal$Bounce_Counter_FSM.v:123$10_EN 1
(declare-fun |Bounce_Counter_FSM#26| (|Bounce_Counter_FSM_s|) (_ BitVec 1)) ; $formal$Bounce_Counter_FSM.v:123$10_EN
(define-fun |Bounce_Counter_FSM_n $formal$Bounce_Counter_FSM.v:123$10_EN| ((state |Bounce_Counter_FSM_s|)) Bool (= ((_ extract 0 0) (|Bounce_Counter_FSM#26| state)) #b1))
; yosys-smt2-register $formal$Bounce_Counter_FSM.v:123$10_CHECK 1
(declare-fun |Bounce_Counter_FSM#27| (|Bounce_Counter_FSM_s|) (_ BitVec 1)) ; $formal$Bounce_Counter_FSM.v:123$10_CHECK
(define-fun |Bounce_Counter_FSM_n $formal$Bounce_Counter_FSM.v:123$10_CHECK| ((state |Bounce_Counter_FSM_s|)) Bool (= ((_ extract 0 0) (|Bounce_Counter_FSM#27| state)) #b1))
; yosys-smt2-register $auto$async2sync.cc:104:execute$332 2
(define-fun |Bounce_Counter_FSM_n $auto$async2sync.cc:104:execute$332| ((state |Bounce_Counter_FSM_s|)) (_ BitVec 2) (|Bounce_Counter_FSM#6| state))
; yosys-smt2-register $auto$async2sync.cc:104:execute$328 14
(define-fun |Bounce_Counter_FSM_n $auto$async2sync.cc:104:execute$328| ((state |Bounce_Counter_FSM_s|)) (_ BitVec 14) (|Bounce_Counter_FSM#12| state))
; yosys-smt2-register $auto$async2sync.cc:104:execute$324 1
(define-fun |Bounce_Counter_FSM_n $auto$async2sync.cc:104:execute$324| ((state |Bounce_Counter_FSM_s|)) Bool (= ((_ extract 0 0) (|Bounce_Counter_FSM#14| state)) #b1))
; yosys-smt2-register $and$Bounce_Counter_FSM.v:121$58_Y 1
(declare-fun |Bounce_Counter_FSM#28| (|Bounce_Counter_FSM_s|) (_ BitVec 1)) ; $and$Bounce_Counter_FSM.v:121$58_Y
(define-fun |Bounce_Counter_FSM_n $and$Bounce_Counter_FSM.v:121$58_Y| ((state |Bounce_Counter_FSM_s|)) Bool (= ((_ extract 0 0) (|Bounce_Counter_FSM#28| state)) #b1))
; yosys-smt2-anyseq Bounce_Counter_FSM#29 1 $auto$setundef.cc:524:execute$379
(declare-fun |Bounce_Counter_FSM#29| (|Bounce_Counter_FSM_s|) (_ BitVec 1)) ; $auto$rtlil.cc:2318:Anyseq$380
(define-fun |Bounce_Counter_FSM#30| ((state |Bounce_Counter_FSM_s|)) Bool (= (|Bounce_Counter_FSM#16| state) (|Bounce_Counter_FSM#15| state))) ; $eq$Bounce_Counter_FSM.v:139$86_Y
(define-fun |Bounce_Counter_FSM#31| ((state |Bounce_Counter_FSM_s|)) (_ BitVec 1) (ite (= ((_ extract 0 0) (|Bounce_Counter_FSM#3| state)) #b1) (ite (|Bounce_Counter_FSM#30| state) #b1 #b0) (|Bounce_Counter_FSM#29| state))) ; $procmux$248_Y
; yosys-smt2-anyseq Bounce_Counter_FSM#32 1 $auto$setundef.cc:524:execute$381
(declare-fun |Bounce_Counter_FSM#32| (|Bounce_Counter_FSM_s|) (_ BitVec 1)) ; $auto$rtlil.cc:2318:Anyseq$382
(define-fun |Bounce_Counter_FSM#33| ((state |Bounce_Counter_FSM_s|)) Bool (not (or  (= ((_ extract 0 0) (|Bounce_Counter_FSM#28| state)) #b1) false false false false false false false false false false false false false false false false false false false false false false false false false false false false false false false))) ; $logic_not$Bounce_Counter_FSM.v:121$59_Y
(define-fun |Bounce_Counter_FSM#34| ((state |Bounce_Counter_FSM_s|)) Bool (and (or  (|Bounce_Counter_FSM#33| state) false) (or  (|Bounce_Counter_FSM#2| state) false false false false false false false false false false false false false false false false false false false false false false false false false false false false false false false))) ; $logic_and$Bounce_Counter_FSM.v:121$61_Y
(define-fun |Bounce_Counter_FSM#35| ((state |Bounce_Counter_FSM_s|)) Bool (and (or  (|Bounce_Counter_FSM#34| state) false) (or  (= ((_ extract 0 0) (|Bounce_Counter_FSM#3| state)) #b1) false))) ; $logic_and$Bounce_Counter_FSM.v:121$63_Y
(define-fun |Bounce_Counter_FSM#36| ((state |Bounce_Counter_FSM_s|)) (_ BitVec 1) (ite (|Bounce_Counter_FSM#35| state) (|Bounce_Counter_FSM#32| state) (|Bounce_Counter_FSM#31| state))) ; $0$formal$Bounce_Counter_FSM.v:139$18_CHECK[0:0]$56
(define-fun |Bounce_Counter_FSM#37| ((state |Bounce_Counter_FSM_s|)) (_ BitVec 1) (ite (= ((_ extract 0 0) (|Bounce_Counter_FSM#3| state)) #b1) #b1 #b0)) ; $procmux$223_Y
(define-fun |Bounce_Counter_FSM#38| ((state |Bounce_Counter_FSM_s|)) (_ BitVec 1) (ite (|Bounce_Counter_FSM#35| state) #b0 (|Bounce_Counter_FSM#37| state))) ; $0$formal$Bounce_Counter_FSM.v:137$16_EN[0:0]$53
; yosys-smt2-assume 0 Bounce_Counter_FSM.v:139
(define-fun |Bounce_Counter_FSM_u 0| ((state |Bounce_Counter_FSM_s|)) Bool (or (= ((_ extract 0 0) (|Bounce_Counter_FSM#36| state)) #b1) (not (= ((_ extract 0 0) (|Bounce_Counter_FSM#38| state)) #b1)))) ; $assume$Bounce_Counter_FSM.v:139$95
; yosys-smt2-anyseq Bounce_Counter_FSM#39 1 $auto$setundef.cc:524:execute$375
(declare-fun |Bounce_Counter_FSM#39| (|Bounce_Counter_FSM_s|) (_ BitVec 1)) ; $auto$rtlil.cc:2318:Anyseq$376
(define-fun |Bounce_Counter_FSM#40| ((state |Bounce_Counter_FSM_s|)) Bool (= (|Bounce_Counter_FSM#17| state) (|Bounce_Counter_FSM#13| state))) ; $eq$Bounce_Counter_FSM.v:138$85_Y
(define-fun |Bounce_Counter_FSM#41| ((state |Bounce_Counter_FSM_s|)) (_ BitVec 1) (ite (= ((_ extract 0 0) (|Bounce_Counter_FSM#3| state)) #b1) (ite (|Bounce_Counter_FSM#40| state) #b1 #b0) (|Bounce_Counter_FSM#39| state))) ; $procmux$238_Y
; yosys-smt2-anyseq Bounce_Counter_FSM#42 1 $auto$setundef.cc:524:execute$377
(declare-fun |Bounce_Counter_FSM#42| (|Bounce_Counter_FSM_s|) (_ BitVec 1)) ; $auto$rtlil.cc:2318:Anyseq$378
(define-fun |Bounce_Counter_FSM#43| ((state |Bounce_Counter_FSM_s|)) (_ BitVec 1) (ite (|Bounce_Counter_FSM#35| state) (|Bounce_Counter_FSM#42| state) (|Bounce_Counter_FSM#41| state))) ; $0$formal$Bounce_Counter_FSM.v:138$17_CHECK[0:0]$54
; yosys-smt2-assume 1 Bounce_Counter_FSM.v:138
(define-fun |Bounce_Counter_FSM_u 1| ((state |Bounce_Counter_FSM_s|)) Bool (or (= ((_ extract 0 0) (|Bounce_Counter_FSM#43| state)) #b1) (not (= ((_ extract 0 0) (|Bounce_Counter_FSM#38| state)) #b1)))) ; $assume$Bounce_Counter_FSM.v:138$94
; yosys-smt2-anyseq Bounce_Counter_FSM#44 1 $auto$setundef.cc:524:execute$371
(declare-fun |Bounce_Counter_FSM#44| (|Bounce_Counter_FSM_s|) (_ BitVec 1)) ; $auto$rtlil.cc:2318:Anyseq$372
(define-fun |Bounce_Counter_FSM#45| ((state |Bounce_Counter_FSM_s|)) Bool (= (|Bounce_Counter_FSM#7| state) (|Bounce_Counter_FSM#18| state))) ; $eq$Bounce_Counter_FSM.v:137$84_Y
(define-fun |Bounce_Counter_FSM#46| ((state |Bounce_Counter_FSM_s|)) (_ BitVec 1) (ite (= ((_ extract 0 0) (|Bounce_Counter_FSM#3| state)) #b1) (ite (|Bounce_Counter_FSM#45| state) #b1 #b0) (|Bounce_Counter_FSM#44| state))) ; $procmux$228_Y
; yosys-smt2-anyseq Bounce_Counter_FSM#47 1 $auto$setundef.cc:524:execute$373
(declare-fun |Bounce_Counter_FSM#47| (|Bounce_Counter_FSM_s|) (_ BitVec 1)) ; $auto$rtlil.cc:2318:Anyseq$374
(define-fun |Bounce_Counter_FSM#48| ((state |Bounce_Counter_FSM_s|)) (_ BitVec 1) (ite (|Bounce_Counter_FSM#35| state) (|Bounce_Counter_FSM#47| state) (|Bounce_Counter_FSM#46| state))) ; $0$formal$Bounce_Counter_FSM.v:137$16_CHECK[0:0]$52
; yosys-smt2-assume 2 Bounce_Counter_FSM.v:137
(define-fun |Bounce_Counter_FSM_u 2| ((state |Bounce_Counter_FSM_s|)) Bool (or (= ((_ extract 0 0) (|Bounce_Counter_FSM#48| state)) #b1) (not (= ((_ extract 0 0) (|Bounce_Counter_FSM#38| state)) #b1)))) ; $assume$Bounce_Counter_FSM.v:137$93
; yosys-smt2-assert 0 Bounce_Counter_FSM.v:132
(define-fun |Bounce_Counter_FSM_a 0| ((state |Bounce_Counter_FSM_s|)) Bool (or (= ((_ extract 0 0) (|Bounce_Counter_FSM#19| state)) #b1) (not (= ((_ extract 0 0) (|Bounce_Counter_FSM#20| state)) #b1)))) ; $assert$Bounce_Counter_FSM.v:132$92
; yosys-smt2-assert 1 Bounce_Counter_FSM.v:131
(define-fun |Bounce_Counter_FSM_a 1| ((state |Bounce_Counter_FSM_s|)) Bool (or (= ((_ extract 0 0) (|Bounce_Counter_FSM#21| state)) #b1) (not (= ((_ extract 0 0) (|Bounce_Counter_FSM#20| state)) #b1)))) ; $assert$Bounce_Counter_FSM.v:131$91
; yosys-smt2-assert 2 Bounce_Counter_FSM.v:128
(define-fun |Bounce_Counter_FSM_a 2| ((state |Bounce_Counter_FSM_s|)) Bool (or (= ((_ extract 0 0) (|Bounce_Counter_FSM#22| state)) #b1) (not (= ((_ extract 0 0) (|Bounce_Counter_FSM#23| state)) #b1)))) ; $assert$Bounce_Counter_FSM.v:128$90
; yosys-smt2-assert 3 Bounce_Counter_FSM.v:127
(define-fun |Bounce_Counter_FSM_a 3| ((state |Bounce_Counter_FSM_s|)) Bool (or (= ((_ extract 0 0) (|Bounce_Counter_FSM#24| state)) #b1) (not (= ((_ extract 0 0) (|Bounce_Counter_FSM#23| state)) #b1)))) ; $assert$Bounce_Counter_FSM.v:127$89
; yosys-smt2-assert 4 Bounce_Counter_FSM.v:124
(define-fun |Bounce_Counter_FSM_a 4| ((state |Bounce_Counter_FSM_s|)) Bool (or (= ((_ extract 0 0) (|Bounce_Counter_FSM#25| state)) #b1) (not (= ((_ extract 0 0) (|Bounce_Counter_FSM#26| state)) #b1)))) ; $assert$Bounce_Counter_FSM.v:124$88
; yosys-smt2-assert 5 Bounce_Counter_FSM.v:123
(define-fun |Bounce_Counter_FSM_a 5| ((state |Bounce_Counter_FSM_s|)) Bool (or (= ((_ extract 0 0) (|Bounce_Counter_FSM#27| state)) #b1) (not (= ((_ extract 0 0) (|Bounce_Counter_FSM#26| state)) #b1)))) ; $assert$Bounce_Counter_FSM.v:123$87
; yosys-smt2-anyseq Bounce_Counter_FSM#49 1 $auto$setundef.cc:524:execute$337
(declare-fun |Bounce_Counter_FSM#49| (|Bounce_Counter_FSM_s|) (_ BitVec 1)) ; $auto$rtlil.cc:2318:Anyseq$338
; yosys-smt2-anyseq Bounce_Counter_FSM#50 1 $auto$setundef.cc:524:execute$335
(declare-fun |Bounce_Counter_FSM#50| (|Bounce_Counter_FSM_s|) (_ BitVec 1)) ; $auto$rtlil.cc:2318:Anyseq$336
(define-fun |Bounce_Counter_FSM#51| ((state |Bounce_Counter_FSM_s|)) Bool (not (or  (= ((_ extract 0 0) (|Bounce_Counter_FSM#13| state)) #b1) (= ((_ extract 1 1) (|Bounce_Counter_FSM#13| state)) #b1) (= ((_ extract 2 2) (|Bounce_Counter_FSM#13| state)) #b1) (= ((_ extract 3 3) (|Bounce_Counter_FSM#13| state)) #b1) (= ((_ extract 4 4) (|Bounce_Counter_FSM#13| state)) #b1) (= ((_ extract 5 5) (|Bounce_Counter_FSM#13| state)) #b1) (= ((_ extract 6 6) (|Bounce_Counter_FSM#13| state)) #b1) (= ((_ extract 7 7) (|Bounce_Counter_FSM#13| state)) #b1) (= ((_ extract 8 8) (|Bounce_Counter_FSM#13| state)) #b1) (= ((_ extract 9 9) (|Bounce_Counter_FSM#13| state)) #b1) (= ((_ extract 10 10) (|Bounce_Counter_FSM#13| state)) #b1) (= ((_ extract 11 11) (|Bounce_Counter_FSM#13| state)) #b1) (= ((_ extract 12 12) (|Bounce_Counter_FSM#13| state)) #b1) (= ((_ extract 13 13) (|Bounce_Counter_FSM#13| state)) #b1)))) ; $eq$Bounce_Counter_FSM.v:123$68_Y
(define-fun |Bounce_Counter_FSM#52| ((state |Bounce_Counter_FSM_s|)) Bool (= (|Bounce_Counter_FSM#18| state) (|Bounce_Counter_FSM#7| state))) ; $eq$Bounce_Counter_FSM.v:122$65_Y [0]
(define-fun |Bounce_Counter_FSM#53| ((state |Bounce_Counter_FSM_s|)) Bool (= (|Bounce_Counter_FSM#7| state) (concat #b0 (ite (|Bounce_Counter_FSM#52| state) #b1 #b0)))) ; $eq$Bounce_Counter_FSM.v:122$66_Y
(define-fun |Bounce_Counter_FSM#54| ((state |Bounce_Counter_FSM_s|)) Bool (and (or  (|Bounce_Counter_FSM#10| state) false) (or  (|Bounce_Counter_FSM#53| state) false))) ; $logic_and$Bounce_Counter_FSM.v:122$67_Y
(define-fun |Bounce_Counter_FSM#55| ((state |Bounce_Counter_FSM_s|)) (_ BitVec 1) (ite (|Bounce_Counter_FSM#54| state) (ite (|Bounce_Counter_FSM#51| state) #b1 #b0) (|Bounce_Counter_FSM#50| state))) ; $procmux$127_Y
(define-fun |Bounce_Counter_FSM#56| ((state |Bounce_Counter_FSM_s|)) (_ BitVec 1) (ite (|Bounce_Counter_FSM#35| state) (|Bounce_Counter_FSM#55| state) (|Bounce_Counter_FSM#49| state))) ; $0$formal$Bounce_Counter_FSM.v:123$10_CHECK[0:0]$40
(define-fun |Bounce_Counter_FSM#57| ((state |Bounce_Counter_FSM_s|)) (_ BitVec 1) (ite (|Bounce_Counter_FSM#54| state) #b1 #b0)) ; $procmux$121_Y
(define-fun |Bounce_Counter_FSM#58| ((state |Bounce_Counter_FSM_s|)) (_ BitVec 1) (ite (|Bounce_Counter_FSM#35| state) (|Bounce_Counter_FSM#57| state) #b0)) ; $0$formal$Bounce_Counter_FSM.v:123$10_EN[0:0]$41
; yosys-smt2-anyseq Bounce_Counter_FSM#59 1 $auto$setundef.cc:524:execute$341
(declare-fun |Bounce_Counter_FSM#59| (|Bounce_Counter_FSM_s|) (_ BitVec 1)) ; $auto$rtlil.cc:2318:Anyseq$342
; yosys-smt2-anyseq Bounce_Counter_FSM#60 1 $auto$setundef.cc:524:execute$339
(declare-fun |Bounce_Counter_FSM#60| (|Bounce_Counter_FSM_s|) (_ BitVec 1)) ; $auto$rtlil.cc:2318:Anyseq$340
(define-fun |Bounce_Counter_FSM#61| ((state |Bounce_Counter_FSM_s|)) (_ BitVec 1) (bvnot (|Bounce_Counter_FSM#15| state))) ; $eq$Bounce_Counter_FSM.v:124$69_Y
(define-fun |Bounce_Counter_FSM#62| ((state |Bounce_Counter_FSM_s|)) (_ BitVec 1) (ite (|Bounce_Counter_FSM#54| state) (|Bounce_Counter_FSM#61| state) (|Bounce_Counter_FSM#60| state))) ; $procmux$139_Y
(define-fun |Bounce_Counter_FSM#63| ((state |Bounce_Counter_FSM_s|)) (_ BitVec 1) (ite (|Bounce_Counter_FSM#35| state) (|Bounce_Counter_FSM#62| state) (|Bounce_Counter_FSM#59| state))) ; $0$formal$Bounce_Counter_FSM.v:124$11_CHECK[0:0]$42
; yosys-smt2-anyseq Bounce_Counter_FSM#64 1 $auto$setundef.cc:524:execute$347
(declare-fun |Bounce_Counter_FSM#64| (|Bounce_Counter_FSM_s|) (_ BitVec 1)) ; $auto$rtlil.cc:2318:Anyseq$348
; yosys-smt2-anyseq Bounce_Counter_FSM#65 1 $auto$setundef.cc:524:execute$343
(declare-fun |Bounce_Counter_FSM#65| (|Bounce_Counter_FSM_s|) (_ BitVec 1)) ; $auto$rtlil.cc:2318:Anyseq$344
(define-fun |Bounce_Counter_FSM#66| ((state |Bounce_Counter_FSM_s|)) (_ BitVec 15) (bvadd (concat #b0 (|Bounce_Counter_FSM#17| state)) #b000000000000001)) ; $add$Bounce_Counter_FSM.v:127$74_Y
(define-fun |Bounce_Counter_FSM#67| ((state |Bounce_Counter_FSM_s|)) Bool (= (concat #b0 (|Bounce_Counter_FSM#13| state)) (|Bounce_Counter_FSM#66| state))) ; $eq$Bounce_Counter_FSM.v:127$75_Y
(define-fun |Bounce_Counter_FSM#68| ((state |Bounce_Counter_FSM_s|)) Bool (and (or  (|Bounce_Counter_FSM#9| state) false) (or  (|Bounce_Counter_FSM#53| state) false))) ; $logic_and$Bounce_Counter_FSM.v:126$73_Y
(define-fun |Bounce_Counter_FSM#69| ((state |Bounce_Counter_FSM_s|)) (_ BitVec 1) (ite (|Bounce_Counter_FSM#68| state) (ite (|Bounce_Counter_FSM#67| state) #b1 #b0) (|Bounce_Counter_FSM#65| state))) ; $procmux$154_Y
; yosys-smt2-anyseq Bounce_Counter_FSM#70 1 $auto$setundef.cc:524:execute$345
(declare-fun |Bounce_Counter_FSM#70| (|Bounce_Counter_FSM_s|) (_ BitVec 1)) ; $auto$rtlil.cc:2318:Anyseq$346
(define-fun |Bounce_Counter_FSM#71| ((state |Bounce_Counter_FSM_s|)) (_ BitVec 1) (ite (|Bounce_Counter_FSM#54| state) (|Bounce_Counter_FSM#70| state) (|Bounce_Counter_FSM#69| state))) ; $procmux$157_Y
(define-fun |Bounce_Counter_FSM#72| ((state |Bounce_Counter_FSM_s|)) (_ BitVec 1) (ite (|Bounce_Counter_FSM#35| state) (|Bounce_Counter_FSM#71| state) (|Bounce_Counter_FSM#64| state))) ; $0$formal$Bounce_Counter_FSM.v:127$12_CHECK[0:0]$44
(define-fun |Bounce_Counter_FSM#73| ((state |Bounce_Counter_FSM_s|)) (_ BitVec 1) (ite (|Bounce_Counter_FSM#68| state) #b1 #b0)) ; $procmux$145_Y
(define-fun |Bounce_Counter_FSM#74| ((state |Bounce_Counter_FSM_s|)) (_ BitVec 1) (ite (|Bounce_Counter_FSM#54| state) #b0 (|Bounce_Counter_FSM#73| state))) ; $procmux$148_Y
(define-fun |Bounce_Counter_FSM#75| ((state |Bounce_Counter_FSM_s|)) (_ BitVec 1) (ite (|Bounce_Counter_FSM#35| state) (|Bounce_Counter_FSM#74| state) #b0)) ; $0$formal$Bounce_Counter_FSM.v:127$12_EN[0:0]$45
; yosys-smt2-anyseq Bounce_Counter_FSM#76 1 $auto$setundef.cc:524:execute$353
(declare-fun |Bounce_Counter_FSM#76| (|Bounce_Counter_FSM_s|) (_ BitVec 1)) ; $auto$rtlil.cc:2318:Anyseq$354
; yosys-smt2-anyseq Bounce_Counter_FSM#77 1 $auto$setundef.cc:524:execute$349
(declare-fun |Bounce_Counter_FSM#77| (|Bounce_Counter_FSM_s|) (_ BitVec 1)) ; $auto$rtlil.cc:2318:Anyseq$350
(define-fun |Bounce_Counter_FSM#78| ((state |Bounce_Counter_FSM_s|)) (_ BitVec 1) (ite (|Bounce_Counter_FSM#68| state) (|Bounce_Counter_FSM#15| state) (|Bounce_Counter_FSM#77| state))) ; $procmux$172_Y
; yosys-smt2-anyseq Bounce_Counter_FSM#79 1 $auto$setundef.cc:524:execute$351
(declare-fun |Bounce_Counter_FSM#79| (|Bounce_Counter_FSM_s|) (_ BitVec 1)) ; $auto$rtlil.cc:2318:Anyseq$352
(define-fun |Bounce_Counter_FSM#80| ((state |Bounce_Counter_FSM_s|)) (_ BitVec 1) (ite (|Bounce_Counter_FSM#54| state) (|Bounce_Counter_FSM#79| state) (|Bounce_Counter_FSM#78| state))) ; $procmux$175_Y
(define-fun |Bounce_Counter_FSM#81| ((state |Bounce_Counter_FSM_s|)) (_ BitVec 1) (ite (|Bounce_Counter_FSM#35| state) (|Bounce_Counter_FSM#80| state) (|Bounce_Counter_FSM#76| state))) ; $0$formal$Bounce_Counter_FSM.v:128$13_CHECK[0:0]$46
; yosys-smt2-anyseq Bounce_Counter_FSM#82 1 $auto$setundef.cc:524:execute$361
(declare-fun |Bounce_Counter_FSM#82| (|Bounce_Counter_FSM_s|) (_ BitVec 1)) ; $auto$rtlil.cc:2318:Anyseq$362
; yosys-smt2-anyseq Bounce_Counter_FSM#83 1 $auto$setundef.cc:524:execute$355
(declare-fun |Bounce_Counter_FSM#83| (|Bounce_Counter_FSM_s|) (_ BitVec 1)) ; $auto$rtlil.cc:2318:Anyseq$356
(define-fun |Bounce_Counter_FSM#84| ((state |Bounce_Counter_FSM_s|)) Bool (= (|Bounce_Counter_FSM#13| state) (|Bounce_Counter_FSM#17| state))) ; $eq$Bounce_Counter_FSM.v:131$81_Y
(define-fun |Bounce_Counter_FSM#85| ((state |Bounce_Counter_FSM_s|)) Bool (and (or  (|Bounce_Counter_FSM#8| state) false) (or  (|Bounce_Counter_FSM#53| state) false))) ; $logic_and$Bounce_Counter_FSM.v:130$80_Y
(define-fun |Bounce_Counter_FSM#86| ((state |Bounce_Counter_FSM_s|)) (_ BitVec 1) (ite (|Bounce_Counter_FSM#85| state) (ite (|Bounce_Counter_FSM#84| state) #b1 #b0) (|Bounce_Counter_FSM#83| state))) ; $procmux$191_Y
; yosys-smt2-anyseq Bounce_Counter_FSM#87 1 $auto$setundef.cc:524:execute$357
(declare-fun |Bounce_Counter_FSM#87| (|Bounce_Counter_FSM_s|) (_ BitVec 1)) ; $auto$rtlil.cc:2318:Anyseq$358
(define-fun |Bounce_Counter_FSM#88| ((state |Bounce_Counter_FSM_s|)) (_ BitVec 1) (ite (|Bounce_Counter_FSM#68| state) (|Bounce_Counter_FSM#87| state) (|Bounce_Counter_FSM#86| state))) ; $procmux$194_Y
; yosys-smt2-anyseq Bounce_Counter_FSM#89 1 $auto$setundef.cc:524:execute$359
(declare-fun |Bounce_Counter_FSM#89| (|Bounce_Counter_FSM_s|) (_ BitVec 1)) ; $auto$rtlil.cc:2318:Anyseq$360
(define-fun |Bounce_Counter_FSM#90| ((state |Bounce_Counter_FSM_s|)) (_ BitVec 1) (ite (|Bounce_Counter_FSM#54| state) (|Bounce_Counter_FSM#89| state) (|Bounce_Counter_FSM#88| state))) ; $procmux$197_Y
(define-fun |Bounce_Counter_FSM#91| ((state |Bounce_Counter_FSM_s|)) (_ BitVec 1) (ite (|Bounce_Counter_FSM#35| state) (|Bounce_Counter_FSM#90| state) (|Bounce_Counter_FSM#82| state))) ; $0$formal$Bounce_Counter_FSM.v:131$14_CHECK[0:0]$48
(define-fun |Bounce_Counter_FSM#92| ((state |Bounce_Counter_FSM_s|)) (_ BitVec 1) (ite (|Bounce_Counter_FSM#85| state) #b1 #b0)) ; $procmux$180_Y
(define-fun |Bounce_Counter_FSM#93| ((state |Bounce_Counter_FSM_s|)) (_ BitVec 1) (ite (|Bounce_Counter_FSM#68| state) #b0 (|Bounce_Counter_FSM#92| state))) ; $procmux$183_Y
(define-fun |Bounce_Counter_FSM#94| ((state |Bounce_Counter_FSM_s|)) (_ BitVec 1) (ite (|Bounce_Counter_FSM#54| state) #b0 (|Bounce_Counter_FSM#93| state))) ; $procmux$186_Y
(define-fun |Bounce_Counter_FSM#95| ((state |Bounce_Counter_FSM_s|)) (_ BitVec 1) (ite (|Bounce_Counter_FSM#35| state) (|Bounce_Counter_FSM#94| state) #b0)) ; $0$formal$Bounce_Counter_FSM.v:131$14_EN[0:0]$49
; yosys-smt2-anyseq Bounce_Counter_FSM#96 1 $auto$setundef.cc:524:execute$369
(declare-fun |Bounce_Counter_FSM#96| (|Bounce_Counter_FSM_s|) (_ BitVec 1)) ; $auto$rtlil.cc:2318:Anyseq$370
; yosys-smt2-anyseq Bounce_Counter_FSM#97 1 $auto$setundef.cc:524:execute$363
(declare-fun |Bounce_Counter_FSM#97| (|Bounce_Counter_FSM_s|) (_ BitVec 1)) ; $auto$rtlil.cc:2318:Anyseq$364
(define-fun |Bounce_Counter_FSM#98| ((state |Bounce_Counter_FSM_s|)) (_ BitVec 1) (ite (|Bounce_Counter_FSM#85| state) (|Bounce_Counter_FSM#61| state) (|Bounce_Counter_FSM#97| state))) ; $procmux$213_Y
; yosys-smt2-anyseq Bounce_Counter_FSM#99 1 $auto$setundef.cc:524:execute$365
(declare-fun |Bounce_Counter_FSM#99| (|Bounce_Counter_FSM_s|) (_ BitVec 1)) ; $auto$rtlil.cc:2318:Anyseq$366
(define-fun |Bounce_Counter_FSM#100| ((state |Bounce_Counter_FSM_s|)) (_ BitVec 1) (ite (|Bounce_Counter_FSM#68| state) (|Bounce_Counter_FSM#99| state) (|Bounce_Counter_FSM#98| state))) ; $procmux$216_Y
; yosys-smt2-anyseq Bounce_Counter_FSM#101 1 $auto$setundef.cc:524:execute$367
(declare-fun |Bounce_Counter_FSM#101| (|Bounce_Counter_FSM_s|) (_ BitVec 1)) ; $auto$rtlil.cc:2318:Anyseq$368
(define-fun |Bounce_Counter_FSM#102| ((state |Bounce_Counter_FSM_s|)) (_ BitVec 1) (ite (|Bounce_Counter_FSM#54| state) (|Bounce_Counter_FSM#101| state) (|Bounce_Counter_FSM#100| state))) ; $procmux$219_Y
(define-fun |Bounce_Counter_FSM#103| ((state |Bounce_Counter_FSM_s|)) (_ BitVec 1) (ite (|Bounce_Counter_FSM#35| state) (|Bounce_Counter_FSM#102| state) (|Bounce_Counter_FSM#96| state))) ; $0$formal$Bounce_Counter_FSM.v:132$15_CHECK[0:0]$50
(define-fun |Bounce_Counter_FSM#104| ((state |Bounce_Counter_FSM_s|)) (_ BitVec 1) (ite (|Bounce_Counter_FSM#9| state) #b1 #b0)) ; $procmux$256_Y
(define-fun |Bounce_Counter_FSM#105| ((state |Bounce_Counter_FSM_s|)) (_ BitVec 1) (ite (|Bounce_Counter_FSM#10| state) #b0 (|Bounce_Counter_FSM#104| state))) ; $0\r_CEN[0:0]
(define-fun |Bounce_Counter_FSM#106| ((state |Bounce_Counter_FSM_s|)) (_ BitVec 1) (ite (|Bounce_Counter_FSM#1| state) #b0 (|Bounce_Counter_FSM#105| state))) ; $auto$async2sync.cc:103:execute$323
(define-fun |Bounce_Counter_FSM#107| ((state |Bounce_Counter_FSM_s|)) (_ BitVec 14) (bvadd (|Bounce_Counter_FSM#13| state) #b00000000000001)) ; $add$Bounce_Counter_FSM.v:103$28_Y
(define-fun |Bounce_Counter_FSM#108| ((state |Bounce_Counter_FSM_s|)) (_ BitVec 14) (ite (|Bounce_Counter_FSM#9| state) (|Bounce_Counter_FSM#107| state) (|Bounce_Counter_FSM#13| state))) ; $procmux$264_Y
(define-fun |Bounce_Counter_FSM#109| ((state |Bounce_Counter_FSM_s|)) (_ BitVec 14) (ite (|Bounce_Counter_FSM#10| state) #b00000000000000 (|Bounce_Counter_FSM#108| state))) ; $0\r_COUNTER[13:0]
(define-fun |Bounce_Counter_FSM#110| ((state |Bounce_Counter_FSM_s|)) (_ BitVec 14) (ite (|Bounce_Counter_FSM#1| state) #b00000000000000 (|Bounce_Counter_FSM#109| state))) ; $auto$async2sync.cc:103:execute$327
(define-fun |Bounce_Counter_FSM#111| ((state |Bounce_Counter_FSM_s|)) (_ BitVec 2) (ite (|Bounce_Counter_FSM#1| state) #b00 (|Bounce_Counter_FSM#11| state))) ; $auto$async2sync.cc:103:execute$331
(define-fun |Bounce_Counter_FSM_a| ((state |Bounce_Counter_FSM_s|)) Bool (and
  (|Bounce_Counter_FSM_a 0| state)
  (|Bounce_Counter_FSM_a 1| state)
  (|Bounce_Counter_FSM_a 2| state)
  (|Bounce_Counter_FSM_a 3| state)
  (|Bounce_Counter_FSM_a 4| state)
  (|Bounce_Counter_FSM_a 5| state)
))
(define-fun |Bounce_Counter_FSM_u| ((state |Bounce_Counter_FSM_s|)) Bool (and
  (|Bounce_Counter_FSM_u 0| state)
  (|Bounce_Counter_FSM_u 1| state)
  (|Bounce_Counter_FSM_u 2| state)
))
(define-fun |Bounce_Counter_FSM_i| ((state |Bounce_Counter_FSM_s|)) Bool (and
  (= (= ((_ extract 0 0) (|Bounce_Counter_FSM#3| state)) #b1) false) ; r_valid
  (= (|Bounce_Counter_FSM#11| state) #b00) ; r_NEXT_STATE
  (= (= ((_ extract 0 0) (|Bounce_Counter_FSM#20| state)) #b1) false) ; $formal$Bounce_Counter_FSM.v:131$14_EN
  (= (= ((_ extract 0 0) (|Bounce_Counter_FSM#23| state)) #b1) false) ; $formal$Bounce_Counter_FSM.v:127$12_EN
  (= (= ((_ extract 0 0) (|Bounce_Counter_FSM#26| state)) #b1) false) ; $formal$Bounce_Counter_FSM.v:123$10_EN
  (= (|Bounce_Counter_FSM#6| state) #b00) ; $auto$async2sync.cc:104:execute$332
  (= (|Bounce_Counter_FSM#12| state) #b00000000000000) ; $auto$async2sync.cc:104:execute$328
  (= (= ((_ extract 0 0) (|Bounce_Counter_FSM#14| state)) #b1) false) ; $auto$async2sync.cc:104:execute$324
))
(define-fun |Bounce_Counter_FSM_h| ((state |Bounce_Counter_FSM_s|)) Bool true)
(define-fun |Bounce_Counter_FSM_t| ((state |Bounce_Counter_FSM_s|) (next_state |Bounce_Counter_FSM_s|)) Bool (and
  (= (ite (|Bounce_Counter_FSM#2| state) #b1 #b0) (|Bounce_Counter_FSM#28| next_state)) ; $procdff$290 $and$Bounce_Counter_FSM.v:121$58_Y
  (= (|Bounce_Counter_FSM#56| state) (|Bounce_Counter_FSM#27| next_state)) ; $procdff$299 $formal$Bounce_Counter_FSM.v:123$10_CHECK
  (= (|Bounce_Counter_FSM#58| state) (|Bounce_Counter_FSM#26| next_state)) ; $procdff$300 $formal$Bounce_Counter_FSM.v:123$10_EN
  (= (|Bounce_Counter_FSM#63| state) (|Bounce_Counter_FSM#25| next_state)) ; $procdff$301 $formal$Bounce_Counter_FSM.v:124$11_CHECK
  (= (|Bounce_Counter_FSM#72| state) (|Bounce_Counter_FSM#24| next_state)) ; $procdff$303 $formal$Bounce_Counter_FSM.v:127$12_CHECK
  (= (|Bounce_Counter_FSM#75| state) (|Bounce_Counter_FSM#23| next_state)) ; $procdff$304 $formal$Bounce_Counter_FSM.v:127$12_EN
  (= (|Bounce_Counter_FSM#81| state) (|Bounce_Counter_FSM#22| next_state)) ; $procdff$305 $formal$Bounce_Counter_FSM.v:128$13_CHECK
  (= (|Bounce_Counter_FSM#91| state) (|Bounce_Counter_FSM#21| next_state)) ; $procdff$307 $formal$Bounce_Counter_FSM.v:131$14_CHECK
  (= (|Bounce_Counter_FSM#95| state) (|Bounce_Counter_FSM#20| next_state)) ; $procdff$308 $formal$Bounce_Counter_FSM.v:131$14_EN
  (= (|Bounce_Counter_FSM#103| state) (|Bounce_Counter_FSM#19| next_state)) ; $procdff$309 $formal$Bounce_Counter_FSM.v:132$15_CHECK
  (= (|Bounce_Counter_FSM#7| state) (|Bounce_Counter_FSM#18| next_state)) ; $procdff$291 $past$Bounce_Counter_FSM.v:122$2$0
  (= (|Bounce_Counter_FSM#13| state) (|Bounce_Counter_FSM#17| next_state)) ; $procdff$293 $past$Bounce_Counter_FSM.v:127$4$0
  (= (|Bounce_Counter_FSM#15| state) (|Bounce_Counter_FSM#16| next_state)) ; $procdff$298 $past$Bounce_Counter_FSM.v:139$9$0
  (= (|Bounce_Counter_FSM#106| state) (|Bounce_Counter_FSM#14| next_state)) ; $procdff$317 $auto$async2sync.cc:104:execute$324
  (= (|Bounce_Counter_FSM#110| state) (|Bounce_Counter_FSM#12| next_state)) ; $procdff$318 $auto$async2sync.cc:104:execute$328
  (= (|Bounce_Counter_FSM#111| state) (|Bounce_Counter_FSM#6| next_state)) ; $procdff$319 $auto$async2sync.cc:104:execute$332
  (= #b1 (|Bounce_Counter_FSM#3| next_state)) ; $procdff$289 \r_valid
)) ; end of module Bounce_Counter_FSM
; yosys-smt2-topmod Bounce_Counter_FSM
; end of yosys output
